data;

set A := 87090 186431 486589 404844 109234 169447 183401 393112 88131 273377 79727 300660 941528 269838 870254 261460 415888 905224 960531 729128 238386 515555 909970 891129 482864 617262 948201 634218 994021 271984 641121 344441;
param T := 8000000;

end;
